p cnf 50 1173
-1 0
-6 0
-7 0
-2 0
-2 0
-7 0
-1 0
-6 0
-8 0
-3 0
-3 0
-8 0
-2 0
-7 0
-9 0
-4 0
-4 0
-9 0
-3 0
-8 0
-10 0
-5 0
-5 0
-10 0
-4 0
-9 0
-1 0
-6 0
-11 0
-12 0
-2 0
-7 0
-2 0
-7 0
-12 0
-1 0
-6 0
-11 0
-13 0
-3 0
-8 0
-3 0
-8 0
-13 0
-2 0
-7 0
-12 0
-14 0
-4 0
-9 0
-4 0
-9 0
-14 0
-3 0
-8 0
-13 0
-15 0
-5 0
-10 0
-5 0
-10 0
-15 0
-4 0
-9 0
-14 0
-6 0
-11 0
-16 0
-17 0
-7 0
-12 0
-7 0
-12 0
-17 0
-6 0
-11 0
-16 0
-18 0
-8 0
-13 0
-8 0
-13 0
-18 0
-7 0
-12 0
-17 0
-19 0
-9 0
-14 0
-9 0
-14 0
-19 0
-8 0
-13 0
-18 0
-20 0
-10 0
-15 0
-10 0
-15 0
-20 0
-9 0
-14 0
-19 0
-11 0
-16 0
-21 0
-22 0
-12 0
-17 0
-12 0
-17 0
-22 0
-11 0
-16 0
-21 0
-23 0
-13 0
-18 0
-13 0
-18 0
-23 0
-12 0
-17 0
-22 0
-24 0
-14 0
-19 0
-14 0
-19 0
-24 0
-13 0
-18 0
-23 0
-25 0
-15 0
-20 0
-15 0
-20 0
-25 0
-14 0
-19 0
-24 0
-16 0
-21 0
-26 0
-27 0
-17 0
-22 0
-17 0
-22 0
-27 0
-16 0
-21 0
-26 0
-28 0
-18 0
-23 0
-18 0
-23 0
-28 0
-17 0
-22 0
-27 0
-29 0
-19 0
-24 0
-19 0
-24 0
-29 0
-18 0
-23 0
-28 0
-30 0
-20 0
-25 0
-20 0
-25 0
-30 0
-19 0
-24 0
-29 0
-21 0
-26 0
-31 0
-32 0
-22 0
-27 0
-22 0
-27 0
-32 0
-21 0
-26 0
-31 0
-33 0
-23 0
-28 0
23 28 33 22 27 32 34 24 29 0
-23 -28 0
-23 -33 0
-28 -33 0
-23 -22 0
-28 -22 0
-33 -22 0
-23 -27 0
-28 -27 0
-33 -27 0
-22 -27 0
-23 -32 0
-28 -32 0
-33 -32 0
-22 -32 0
-27 -32 0
-23 -34 0
-28 -34 0
-33 -34 0
-22 -34 0
-27 -34 0
-32 -34 0
-23 -24 0
-28 -24 0
-33 -24 0
-22 -24 0
-27 -24 0
-32 -24 0
-34 -24 0
-23 -29 0
-28 -29 0
-33 -29 0
-22 -29 0
-27 -29 0
-32 -29 0
-34 -29 0
-24 -29 0
24 29 34 23 28 33 35 25 30 0
-24 -29 0
-24 -34 0
-29 -34 0
-24 -23 0
-29 -23 0
-34 -23 0
-24 -28 0
-29 -28 0
-34 -28 0
-23 -28 0
-24 -33 0
-29 -33 0
-34 -33 0
-23 -33 0
-28 -33 0
-24 -35 0
-29 -35 0
-34 -35 0
-23 -35 0
-28 -35 0
-33 -35 0
-24 -25 0
-29 -25 0
-34 -25 0
-23 -25 0
-28 -25 0
-33 -25 0
-35 -25 0
-24 -30 0
-29 -30 0
-34 -30 0
-23 -30 0
-28 -30 0
-33 -30 0
-35 -30 0
-25 -30 0
25 30 35 24 29 34 0
-25 -30 0
-25 -35 0
-30 -35 0
-25 -24 0
-30 -24 0
-35 -24 0
-25 -29 0
-30 -29 0
-35 -29 0
-24 -29 0
-25 -34 0
-30 -34 0
-35 -34 0
-24 -34 0
-29 -34 0
26 31 36 37 27 0
26 31 36 37 32 0
26 31 36 27 32 0
26 31 37 27 32 0
26 36 37 27 32 0
31 36 37 27 32 0
-26 -31 -36 0
-26 -31 -37 0
-26 -36 -37 0
-31 -36 -37 0
-26 -31 -27 0
-26 -36 -27 0
-31 -36 -27 0
-26 -37 -27 0
-31 -37 -27 0
-36 -37 -27 0
-26 -31 -32 0
-26 -36 -32 0
-31 -36 -32 0
-26 -37 -32 0
-31 -37 -32 0
-36 -37 -32 0
-26 -27 -32 0
-31 -27 -32 0
-36 -27 -32 0
-37 -27 -32 0
27 32 37 26 31 36 38 28 0
27 32 37 26 31 36 38 33 0
27 32 37 26 31 36 28 33 0
27 32 37 26 31 38 28 33 0
27 32 37 26 36 38 28 33 0
27 32 37 31 36 38 28 33 0
27 32 26 31 36 38 28 33 0
27 37 26 31 36 38 28 33 0
32 37 26 31 36 38 28 33 0
-27 -32 -37 0
-27 -32 -26 0
-27 -37 -26 0
-32 -37 -26 0
-27 -32 -31 0
-27 -37 -31 0
-32 -37 -31 0
-27 -26 -31 0
-32 -26 -31 0
-37 -26 -31 0
-27 -32 -36 0
-27 -37 -36 0
-32 -37 -36 0
-27 -26 -36 0
-32 -26 -36 0
-37 -26 -36 0
-27 -31 -36 0
-32 -31 -36 0
-37 -31 -36 0
-26 -31 -36 0
-27 -32 -38 0
-27 -37 -38 0
-32 -37 -38 0
-27 -26 -38 0
-32 -26 -38 0
-37 -26 -38 0
-27 -31 -38 0
-32 -31 -38 0
-37 -31 -38 0
-26 -31 -38 0
-27 -36 -38 0
-32 -36 -38 0
-37 -36 -38 0
-26 -36 -38 0
-31 -36 -38 0
-27 -32 -28 0
-27 -37 -28 0
-32 -37 -28 0
-27 -26 -28 0
-32 -26 -28 0
-37 -26 -28 0
-27 -31 -28 0
-32 -31 -28 0
-37 -31 -28 0
-26 -31 -28 0
-27 -36 -28 0
-32 -36 -28 0
-37 -36 -28 0
-26 -36 -28 0
-31 -36 -28 0
-27 -38 -28 0
-32 -38 -28 0
-37 -38 -28 0
-26 -38 -28 0
-31 -38 -28 0
-36 -38 -28 0
-27 -32 -33 0
-27 -37 -33 0
-32 -37 -33 0
-27 -26 -33 0
-32 -26 -33 0
-37 -26 -33 0
-27 -31 -33 0
-32 -31 -33 0
-37 -31 -33 0
-26 -31 -33 0
-27 -36 -33 0
-32 -36 -33 0
-37 -36 -33 0
-26 -36 -33 0
-31 -36 -33 0
-27 -38 -33 0
-32 -38 -33 0
-37 -38 -33 0
-26 -38 -33 0
-31 -38 -33 0
-36 -38 -33 0
-27 -28 -33 0
-32 -28 -33 0
-37 -28 -33 0
-26 -28 -33 0
-31 -28 -33 0
-36 -28 -33 0
-38 -28 -33 0
28 33 38 27 32 37 39 29 0
28 33 38 27 32 37 39 34 0
28 33 38 27 32 37 29 34 0
28 33 38 27 32 39 29 34 0
28 33 38 27 37 39 29 34 0
28 33 38 32 37 39 29 34 0
28 33 27 32 37 39 29 34 0
28 38 27 32 37 39 29 34 0
33 38 27 32 37 39 29 34 0
-28 -33 -38 0
-28 -33 -27 0
-28 -38 -27 0
-33 -38 -27 0
-28 -33 -32 0
-28 -38 -32 0
-33 -38 -32 0
-28 -27 -32 0
-33 -27 -32 0
-38 -27 -32 0
-28 -33 -37 0
-28 -38 -37 0
-33 -38 -37 0
-28 -27 -37 0
-33 -27 -37 0
-38 -27 -37 0
-28 -32 -37 0
-33 -32 -37 0
-38 -32 -37 0
-27 -32 -37 0
-28 -33 -39 0
-28 -38 -39 0
-33 -38 -39 0
-28 -27 -39 0
-33 -27 -39 0
-38 -27 -39 0
-28 -32 -39 0
-33 -32 -39 0
-38 -32 -39 0
-27 -32 -39 0
-28 -37 -39 0
-33 -37 -39 0
-38 -37 -39 0
-27 -37 -39 0
-32 -37 -39 0
-28 -33 -29 0
-28 -38 -29 0
-33 -38 -29 0
-28 -27 -29 0
-33 -27 -29 0
-38 -27 -29 0
-28 -32 -29 0
-33 -32 -29 0
-38 -32 -29 0
-27 -32 -29 0
-28 -37 -29 0
-33 -37 -29 0
-38 -37 -29 0
-27 -37 -29 0
-32 -37 -29 0
-28 -39 -29 0
-33 -39 -29 0
-38 -39 -29 0
-27 -39 -29 0
-32 -39 -29 0
-37 -39 -29 0
-28 -33 -34 0
-28 -38 -34 0
-33 -38 -34 0
-28 -27 -34 0
-33 -27 -34 0
-38 -27 -34 0
-28 -32 -34 0
-33 -32 -34 0
-38 -32 -34 0
-27 -32 -34 0
-28 -37 -34 0
-33 -37 -34 0
-38 -37 -34 0
-27 -37 -34 0
-32 -37 -34 0
-28 -39 -34 0
-33 -39 -34 0
-38 -39 -34 0
-27 -39 -34 0
-32 -39 -34 0
-37 -39 -34 0
-28 -29 -34 0
-33 -29 -34 0
-38 -29 -34 0
-27 -29 -34 0
-32 -29 -34 0
-37 -29 -34 0
-39 -29 -34 0
29 34 39 28 33 38 40 30 35 0
-29 -34 0
-29 -39 0
-34 -39 0
-29 -28 0
-34 -28 0
-39 -28 0
-29 -33 0
-34 -33 0
-39 -33 0
-28 -33 0
-29 -38 0
-34 -38 0
-39 -38 0
-28 -38 0
-33 -38 0
-29 -40 0
-34 -40 0
-39 -40 0
-28 -40 0
-33 -40 0
-38 -40 0
-29 -30 0
-34 -30 0
-39 -30 0
-28 -30 0
-33 -30 0
-38 -30 0
-40 -30 0
-29 -35 0
-34 -35 0
-39 -35 0
-28 -35 0
-33 -35 0
-38 -35 0
-40 -35 0
-30 -35 0
30 35 40 29 34 39 0
-30 -35 0
-30 -40 0
-35 -40 0
-30 -29 0
-35 -29 0
-40 -29 0
-30 -34 0
-35 -34 0
-40 -34 0
-29 -34 0
-30 -39 0
-35 -39 0
-40 -39 0
-29 -39 0
-34 -39 0
31 36 41 42 0
31 36 41 32 0
31 36 42 32 0
31 41 42 32 0
36 41 42 32 0
31 36 41 37 0
31 36 42 37 0
31 41 42 37 0
36 41 42 37 0
31 36 32 37 0
31 41 32 37 0
36 41 32 37 0
31 42 32 37 0
36 42 32 37 0
41 42 32 37 0
-31 -36 -41 -42 0
-31 -36 -41 -32 0
-31 -36 -42 -32 0
-31 -41 -42 -32 0
-36 -41 -42 -32 0
-31 -36 -41 -37 0
-31 -36 -42 -37 0
-31 -41 -42 -37 0
-36 -41 -42 -37 0
-31 -36 -32 -37 0
-31 -41 -32 -37 0
-36 -41 -32 -37 0
-31 -42 -32 -37 0
-36 -42 -32 -37 0
-41 -42 -32 -37 0
32 37 42 31 36 41 43 0
32 37 42 31 36 41 33 0
32 37 42 31 36 43 33 0
32 37 42 31 41 43 33 0
32 37 42 36 41 43 33 0
32 37 31 36 41 43 33 0
32 42 31 36 41 43 33 0
37 42 31 36 41 43 33 0
32 37 42 31 36 41 38 0
32 37 42 31 36 43 38 0
32 37 42 31 41 43 38 0
32 37 42 36 41 43 38 0
32 37 31 36 41 43 38 0
32 42 31 36 41 43 38 0
37 42 31 36 41 43 38 0
32 37 42 31 36 33 38 0
32 37 42 31 41 33 38 0
32 37 42 36 41 33 38 0
32 37 31 36 41 33 38 0
32 42 31 36 41 33 38 0
37 42 31 36 41 33 38 0
32 37 42 31 43 33 38 0
32 37 42 36 43 33 38 0
32 37 31 36 43 33 38 0
32 42 31 36 43 33 38 0
37 42 31 36 43 33 38 0
32 37 42 41 43 33 38 0
32 37 31 41 43 33 38 0
32 42 31 41 43 33 38 0
37 42 31 41 43 33 38 0
32 37 36 41 43 33 38 0
32 42 36 41 43 33 38 0
37 42 36 41 43 33 38 0
32 31 36 41 43 33 38 0
37 31 36 41 43 33 38 0
42 31 36 41 43 33 38 0
-32 -37 -42 -31 0
-32 -37 -42 -36 0
-32 -37 -31 -36 0
-32 -42 -31 -36 0
-37 -42 -31 -36 0
-32 -37 -42 -41 0
-32 -37 -31 -41 0
-32 -42 -31 -41 0
-37 -42 -31 -41 0
-32 -37 -36 -41 0
-32 -42 -36 -41 0
-37 -42 -36 -41 0
-32 -31 -36 -41 0
-37 -31 -36 -41 0
-42 -31 -36 -41 0
-32 -37 -42 -43 0
-32 -37 -31 -43 0
-32 -42 -31 -43 0
-37 -42 -31 -43 0
-32 -37 -36 -43 0
-32 -42 -36 -43 0
-37 -42 -36 -43 0
-32 -31 -36 -43 0
-37 -31 -36 -43 0
-42 -31 -36 -43 0
-32 -37 -41 -43 0
-32 -42 -41 -43 0
-37 -42 -41 -43 0
-32 -31 -41 -43 0
-37 -31 -41 -43 0
-42 -31 -41 -43 0
-32 -36 -41 -43 0
-37 -36 -41 -43 0
-42 -36 -41 -43 0
-31 -36 -41 -43 0
-32 -37 -42 -33 0
-32 -37 -31 -33 0
-32 -42 -31 -33 0
-37 -42 -31 -33 0
-32 -37 -36 -33 0
-32 -42 -36 -33 0
-37 -42 -36 -33 0
-32 -31 -36 -33 0
-37 -31 -36 -33 0
-42 -31 -36 -33 0
-32 -37 -41 -33 0
-32 -42 -41 -33 0
-37 -42 -41 -33 0
-32 -31 -41 -33 0
-37 -31 -41 -33 0
-42 -31 -41 -33 0
-32 -36 -41 -33 0
-37 -36 -41 -33 0
-42 -36 -41 -33 0
-31 -36 -41 -33 0
-32 -37 -43 -33 0
-32 -42 -43 -33 0
-37 -42 -43 -33 0
-32 -31 -43 -33 0
-37 -31 -43 -33 0
-42 -31 -43 -33 0
-32 -36 -43 -33 0
-37 -36 -43 -33 0
-42 -36 -43 -33 0
-31 -36 -43 -33 0
-32 -41 -43 -33 0
-37 -41 -43 -33 0
-42 -41 -43 -33 0
-31 -41 -43 -33 0
-36 -41 -43 -33 0
-32 -37 -42 -38 0
-32 -37 -31 -38 0
-32 -42 -31 -38 0
-37 -42 -31 -38 0
-32 -37 -36 -38 0
-32 -42 -36 -38 0
-37 -42 -36 -38 0
-32 -31 -36 -38 0
-37 -31 -36 -38 0
-42 -31 -36 -38 0
-32 -37 -41 -38 0
-32 -42 -41 -38 0
-37 -42 -41 -38 0
-32 -31 -41 -38 0
-37 -31 -41 -38 0
-42 -31 -41 -38 0
-32 -36 -41 -38 0
-37 -36 -41 -38 0
-42 -36 -41 -38 0
-31 -36 -41 -38 0
-32 -37 -43 -38 0
-32 -42 -43 -38 0
-37 -42 -43 -38 0
-32 -31 -43 -38 0
-37 -31 -43 -38 0
-42 -31 -43 -38 0
-32 -36 -43 -38 0
-37 -36 -43 -38 0
-42 -36 -43 -38 0
-31 -36 -43 -38 0
-32 -41 -43 -38 0
-37 -41 -43 -38 0
-42 -41 -43 -38 0
-31 -41 -43 -38 0
-36 -41 -43 -38 0
-32 -37 -33 -38 0
-32 -42 -33 -38 0
-37 -42 -33 -38 0
-32 -31 -33 -38 0
-37 -31 -33 -38 0
-42 -31 -33 -38 0
-32 -36 -33 -38 0
-37 -36 -33 -38 0
-42 -36 -33 -38 0
-31 -36 -33 -38 0
-32 -41 -33 -38 0
-37 -41 -33 -38 0
-42 -41 -33 -38 0
-31 -41 -33 -38 0
-36 -41 -33 -38 0
-32 -43 -33 -38 0
-37 -43 -33 -38 0
-42 -43 -33 -38 0
-31 -43 -33 -38 0
-36 -43 -33 -38 0
-41 -43 -33 -38 0
33 38 43 32 37 42 44 34 0
33 38 43 32 37 42 44 39 0
33 38 43 32 37 42 34 39 0
33 38 43 32 37 44 34 39 0
33 38 43 32 42 44 34 39 0
33 38 43 37 42 44 34 39 0
33 38 32 37 42 44 34 39 0
33 43 32 37 42 44 34 39 0
38 43 32 37 42 44 34 39 0
-33 -38 -43 0
-33 -38 -32 0
-33 -43 -32 0
-38 -43 -32 0
-33 -38 -37 0
-33 -43 -37 0
-38 -43 -37 0
-33 -32 -37 0
-38 -32 -37 0
-43 -32 -37 0
-33 -38 -42 0
-33 -43 -42 0
-38 -43 -42 0
-33 -32 -42 0
-38 -32 -42 0
-43 -32 -42 0
-33 -37 -42 0
-38 -37 -42 0
-43 -37 -42 0
-32 -37 -42 0
-33 -38 -44 0
-33 -43 -44 0
-38 -43 -44 0
-33 -32 -44 0
-38 -32 -44 0
-43 -32 -44 0
-33 -37 -44 0
-38 -37 -44 0
-43 -37 -44 0
-32 -37 -44 0
-33 -42 -44 0
-38 -42 -44 0
-43 -42 -44 0
-32 -42 -44 0
-37 -42 -44 0
-33 -38 -34 0
-33 -43 -34 0
-38 -43 -34 0
-33 -32 -34 0
-38 -32 -34 0
-43 -32 -34 0
-33 -37 -34 0
-38 -37 -34 0
-43 -37 -34 0
-32 -37 -34 0
-33 -42 -34 0
-38 -42 -34 0
-43 -42 -34 0
-32 -42 -34 0
-37 -42 -34 0
-33 -44 -34 0
-38 -44 -34 0
-43 -44 -34 0
-32 -44 -34 0
-37 -44 -34 0
-42 -44 -34 0
-33 -38 -39 0
-33 -43 -39 0
-38 -43 -39 0
-33 -32 -39 0
-38 -32 -39 0
-43 -32 -39 0
-33 -37 -39 0
-38 -37 -39 0
-43 -37 -39 0
-32 -37 -39 0
-33 -42 -39 0
-38 -42 -39 0
-43 -42 -39 0
-32 -42 -39 0
-37 -42 -39 0
-33 -44 -39 0
-38 -44 -39 0
-43 -44 -39 0
-32 -44 -39 0
-37 -44 -39 0
-42 -44 -39 0
-33 -34 -39 0
-38 -34 -39 0
-43 -34 -39 0
-32 -34 -39 0
-37 -34 -39 0
-42 -34 -39 0
-44 -34 -39 0
34 39 44 33 38 43 45 35 40 0
-34 -39 0
-34 -44 0
-39 -44 0
-34 -33 0
-39 -33 0
-44 -33 0
-34 -38 0
-39 -38 0
-44 -38 0
-33 -38 0
-34 -43 0
-39 -43 0
-44 -43 0
-33 -43 0
-38 -43 0
-34 -45 0
-39 -45 0
-44 -45 0
-33 -45 0
-38 -45 0
-43 -45 0
-34 -35 0
-39 -35 0
-44 -35 0
-33 -35 0
-38 -35 0
-43 -35 0
-45 -35 0
-34 -40 0
-39 -40 0
-44 -40 0
-33 -40 0
-38 -40 0
-43 -40 0
-45 -40 0
-35 -40 0
35 40 45 34 39 44 0
-35 -40 0
-35 -45 0
-40 -45 0
-35 -34 0
-40 -34 0
-45 -34 0
-35 -39 0
-40 -39 0
-45 -39 0
-34 -39 0
-35 -44 0
-40 -44 0
-45 -44 0
-34 -44 0
-39 -44 0
36 41 46 47 0
36 41 46 37 0
36 41 47 37 0
36 46 47 37 0
41 46 47 37 0
36 41 46 42 0
36 41 47 42 0
36 46 47 42 0
41 46 47 42 0
36 41 37 42 0
36 46 37 42 0
41 46 37 42 0
36 47 37 42 0
41 47 37 42 0
46 47 37 42 0
-36 -41 -46 -47 0
-36 -41 -46 -37 0
-36 -41 -47 -37 0
-36 -46 -47 -37 0
-41 -46 -47 -37 0
-36 -41 -46 -42 0
-36 -41 -47 -42 0
-36 -46 -47 -42 0
-41 -46 -47 -42 0
-36 -41 -37 -42 0
-36 -46 -37 -42 0
-41 -46 -37 -42 0
-36 -47 -37 -42 0
-41 -47 -37 -42 0
-46 -47 -37 -42 0
37 42 47 36 41 46 48 0
37 42 47 36 41 46 38 0
37 42 47 36 41 48 38 0
37 42 47 36 46 48 38 0
37 42 47 41 46 48 38 0
37 42 36 41 46 48 38 0
37 47 36 41 46 48 38 0
42 47 36 41 46 48 38 0
37 42 47 36 41 46 43 0
37 42 47 36 41 48 43 0
37 42 47 36 46 48 43 0
37 42 47 41 46 48 43 0
37 42 36 41 46 48 43 0
37 47 36 41 46 48 43 0
42 47 36 41 46 48 43 0
37 42 47 36 41 38 43 0
37 42 47 36 46 38 43 0
37 42 47 41 46 38 43 0
37 42 36 41 46 38 43 0
37 47 36 41 46 38 43 0
42 47 36 41 46 38 43 0
37 42 47 36 48 38 43 0
37 42 47 41 48 38 43 0
37 42 36 41 48 38 43 0
37 47 36 41 48 38 43 0
42 47 36 41 48 38 43 0
37 42 47 46 48 38 43 0
37 42 36 46 48 38 43 0
37 47 36 46 48 38 43 0
42 47 36 46 48 38 43 0
37 42 41 46 48 38 43 0
37 47 41 46 48 38 43 0
42 47 41 46 48 38 43 0
37 36 41 46 48 38 43 0
42 36 41 46 48 38 43 0
47 36 41 46 48 38 43 0
-37 -42 -47 -36 0
-37 -42 -47 -41 0
-37 -42 -36 -41 0
-37 -47 -36 -41 0
-42 -47 -36 -41 0
-37 -42 -47 -46 0
-37 -42 -36 -46 0
-37 -47 -36 -46 0
-42 -47 -36 -46 0
-37 -42 -41 -46 0
-37 -47 -41 -46 0
-42 -47 -41 -46 0
-37 -36 -41 -46 0
-42 -36 -41 -46 0
-47 -36 -41 -46 0
-37 -42 -47 -48 0
-37 -42 -36 -48 0
-37 -47 -36 -48 0
-42 -47 -36 -48 0
-37 -42 -41 -48 0
-37 -47 -41 -48 0
-42 -47 -41 -48 0
-37 -36 -41 -48 0
-42 -36 -41 -48 0
-47 -36 -41 -48 0
-37 -42 -46 -48 0
-37 -47 -46 -48 0
-42 -47 -46 -48 0
-37 -36 -46 -48 0
-42 -36 -46 -48 0
-47 -36 -46 -48 0
-37 -41 -46 -48 0
-42 -41 -46 -48 0
-47 -41 -46 -48 0
-36 -41 -46 -48 0
-37 -42 -47 -38 0
-37 -42 -36 -38 0
-37 -47 -36 -38 0
-42 -47 -36 -38 0
-37 -42 -41 -38 0
-37 -47 -41 -38 0
-42 -47 -41 -38 0
-37 -36 -41 -38 0
-42 -36 -41 -38 0
-47 -36 -41 -38 0
-37 -42 -46 -38 0
-37 -47 -46 -38 0
-42 -47 -46 -38 0
-37 -36 -46 -38 0
-42 -36 -46 -38 0
-47 -36 -46 -38 0
-37 -41 -46 -38 0
-42 -41 -46 -38 0
-47 -41 -46 -38 0
-36 -41 -46 -38 0
-37 -42 -48 -38 0
-37 -47 -48 -38 0
-42 -47 -48 -38 0
-37 -36 -48 -38 0
-42 -36 -48 -38 0
-47 -36 -48 -38 0
-37 -41 -48 -38 0
-42 -41 -48 -38 0
-47 -41 -48 -38 0
-36 -41 -48 -38 0
-37 -46 -48 -38 0
-42 -46 -48 -38 0
-47 -46 -48 -38 0
-36 -46 -48 -38 0
-41 -46 -48 -38 0
-37 -42 -47 -43 0
-37 -42 -36 -43 0
-37 -47 -36 -43 0
-42 -47 -36 -43 0
-37 -42 -41 -43 0
-37 -47 -41 -43 0
-42 -47 -41 -43 0
-37 -36 -41 -43 0
-42 -36 -41 -43 0
-47 -36 -41 -43 0
-37 -42 -46 -43 0
-37 -47 -46 -43 0
-42 -47 -46 -43 0
-37 -36 -46 -43 0
-42 -36 -46 -43 0
-47 -36 -46 -43 0
-37 -41 -46 -43 0
-42 -41 -46 -43 0
-47 -41 -46 -43 0
-36 -41 -46 -43 0
-37 -42 -48 -43 0
-37 -47 -48 -43 0
-42 -47 -48 -43 0
-37 -36 -48 -43 0
-42 -36 -48 -43 0
-47 -36 -48 -43 0
-37 -41 -48 -43 0
-42 -41 -48 -43 0
-47 -41 -48 -43 0
-36 -41 -48 -43 0
-37 -46 -48 -43 0
-42 -46 -48 -43 0
-47 -46 -48 -43 0
-36 -46 -48 -43 0
-41 -46 -48 -43 0
-37 -42 -38 -43 0
-37 -47 -38 -43 0
-42 -47 -38 -43 0
-37 -36 -38 -43 0
-42 -36 -38 -43 0
-47 -36 -38 -43 0
-37 -41 -38 -43 0
-42 -41 -38 -43 0
-47 -41 -38 -43 0
-36 -41 -38 -43 0
-37 -46 -38 -43 0
-42 -46 -38 -43 0
-47 -46 -38 -43 0
-36 -46 -38 -43 0
-41 -46 -38 -43 0
-37 -48 -38 -43 0
-42 -48 -38 -43 0
-47 -48 -38 -43 0
-36 -48 -38 -43 0
-41 -48 -38 -43 0
-46 -48 -38 -43 0
38 43 48 37 42 47 49 39 44 0
-38 -43 0
-38 -48 0
-43 -48 0
-38 -37 0
-43 -37 0
-48 -37 0
-38 -42 0
-43 -42 0
-48 -42 0
-37 -42 0
-38 -47 0
-43 -47 0
-48 -47 0
-37 -47 0
-42 -47 0
-38 -49 0
-43 -49 0
-48 -49 0
-37 -49 0
-42 -49 0
-47 -49 0
-38 -39 0
-43 -39 0
-48 -39 0
-37 -39 0
-42 -39 0
-47 -39 0
-49 -39 0
-38 -44 0
-43 -44 0
-48 -44 0
-37 -44 0
-42 -44 0
-47 -44 0
-49 -44 0
-39 -44 0
-39 0
-44 0
-49 0
-38 0
-43 0
-48 0
-50 0
-40 0
-45 0
-40 0
-45 0
-50 0
-39 0
-44 0
-49 0
41 46 42 47 0
-41 -46 0
-41 -42 0
-46 -42 0
-41 -47 0
-46 -47 0
-42 -47 0
42 47 41 46 43 48 0
-42 -47 0
-42 -41 0
-47 -41 0
-42 -46 0
-47 -46 0
-41 -46 0
-42 -43 0
-47 -43 0
-41 -43 0
-46 -43 0
-42 -48 0
-47 -48 0
-41 -48 0
-46 -48 0
-43 -48 0
-43 0
-48 0
-42 0
-47 0
-44 0
-49 0
-44 0
-49 0
-43 0
-48 0
-45 0
-50 0
-45 0
-50 0
-44 0
-49 0
